(set-info :smt-lib-version 2.6)
(set-logic QF_LIA)
(set-info :category "industrial")
(set-info :status sat)
(declare-fun x0 () Int)
(declare-fun x1 () Int)
(declare-fun x10 () Int)
(declare-fun x11 () Int)
(declare-fun x12 () Int)
(declare-fun x13 () Int)
(declare-fun x14 () Int)
(declare-fun x15 () Int)
(declare-fun x16 () Int)
(declare-fun x17 () Int)
(declare-fun x18 () Int)
(declare-fun x19 () Int)
(declare-fun x2 () Int)
(declare-fun x20 () Int)
(declare-fun x21 () Int)
(declare-fun x22 () Int)
(declare-fun x23 () Int)
(declare-fun x24 () Int)
(declare-fun x25 () Int)
(declare-fun x26 () Int)
(declare-fun x27 () Int)
(declare-fun x28 () Int)
(declare-fun x29 () Int)
(declare-fun x3 () Int)
(declare-fun x30 () Int)
(declare-fun x31 () Int)
(declare-fun x32 () Int)
(declare-fun x33 () Int)
(declare-fun x34 () Int)
(declare-fun x4 () Int)
(declare-fun x5 () Int)
(declare-fun x6 () Int)
(declare-fun x7 () Int)
(declare-fun x8 () Int)
(declare-fun x9 () Int)
(assert (let ((?v_13 (* 1 x0)) (?v_5 (* 1 x1)) (?v_0 (* 0 x13)) (?v_8 (* 0 x14)) (?v_69 (* 1 x17)) (?v_70 (* 1 x2)) (?v_1 (* 0 x26)) (?v_2 (* 0 x3)) (?v_11 (* 0 x33)) (?v_12 (* 0 x34)) (?v_3 (* 0 x7)) (?v_4 (* 1 x22)) (?v_110 (* 1 x25)) (?v_65 (* 1 x27)) (?v_84 (* 1 x32)) (?v_19 (* 1 x4)) (?v_20 (* 0 x1)) (?v_6 (* 0 x11)) (?v_9 (* 0 x15)) (?v_56 (* 0 x16)) (?v_95 (* 0 x17)) (?v_16 (* 0 x18)) (?v_64 (* 1 x19)) (?v_10 (* 1 x21)) (?v_53 (* 0 x5)) (?v_24 (* 1 x24)) (?v_26 (* 0 x8)) (?v_27 (* 0 x19)) (?v_17 (* 0 x27)) (?v_18 (* 0 x31)) (?v_31 (* 1 x5)) (?v_91 (* 1 x9)) (?v_43 (* 1 x10)) (?v_22 (* 1 x16)) (?v_23 (* 0 x20)) (?v_36 (* 0 x21)) (?v_25 (* 0 x25)) (?v_30 (* 0 x29)) (?v_39 (* 1 x28)) (?v_75 (* 1 x33)) (?v_62 (* 0 x10)) (?v_98 (* 2 x17)) (?v_28 (* 0 x23)) (?v_52 (* 0 x28)) (?v_46 (* 0 x32)) (?v_59 (* 1 x26)) (?v_42 (* 2 x9)) (?v_37 (* 0 x24)) (?v_74 (* 1 x3)) (?v_40 (* 0 x30)) (?v_41 (* 0 x6)) (?v_55 (* 0 x0)) (?v_113 (* 2 x13)) (?v_88 (* 1 x12)) (?v_51 (* 0 x22)) (?v_60 (* 0 x9)) (?v_54 (* 1 x6)) (?v_67 (* 1 x8))) (let ((?v_120 (+ ?v_60 (+ ?v_54 ?v_67))) (?v_63 (* 1 x14)) (?v_77 (* 1 x18)) (?v_101 (* 2 x19)) (?v_114 (+ ?v_60 ?v_54)) (?v_76 (* 0 x2)) (?v_73 (* 0 x4)) (?v_72 (* 1 x23)) (?v_89 (* 1 x31)) (?v_103 (* 1 x13)) (?v_99 (* 1 x34)) (?v_94 (* 1 x11)) (?v_109 (* 2 x0)) (?v_96 (* 1 x15)) (?v_97 (* 1 x29)) (?v_90 (* 0 x12)) (?v_106 (* 3 x15)) (?v_121 (* 2 x27)) (?v_124 (* 1 x20)) (?v_116 (* 2 x4)) (?v_104 (* 1 x30)) (?v_105 (* 1 x7)) (?v_119 (+ ?v_41 ?v_26)) (?v_123 (* 2 x28)) (?v_115 (* 2 x25)) (?v_125 (* 2 x3)) (?v_33 (* (- 1) x15)) (?v_92 (* (- 1) x19)) (?v_49 (* (- 1) x24)) (?v_71 (* (- 1) x5)) (?v_66 (* (- 1) x6)) (?v_7 (* (- 1) x23)) (?v_100 (* (- 1) x28)) (?v_21 (* (- 1) x4)) (?v_44 (* (- 2) x14)) (?v_14 (* (- 1) x12)) (?v_48 (* (- 1) x16)) (?v_15 (* (- 1) x17)) (?v_45 (* (- 1) x18)) (?v_81 (* (- 1) x22)) (?v_57 (* (- 1) x25)) (?v_82 (* (- 1) x3)) (?v_107 (* (- 2) x8)) (?v_38 (* (- 1) x26)) (?v_29 (* (- 1) x34)) (?v_47 (* (- 1) x0)) (?v_93 (* (- 1) x21)) (?v_32 (* (- 1) x10)) (?v_80 (* (- 1) x14)) (?v_34 (* (- 1) x2)) (?v_35 (* (- 1) x20)) (?v_50 (* (- 1) x31)) (?v_61 (* (- 1) x7)) (?v_68 (* (- 2) x10)) (?v_86 (* (- 1) x11)) (?v_58 (* (- 1) x29)) (?v_87 (* (- 1) x9)) (?v_83 (* (- 1) x30))) (let ((?v_118 (+ ?v_66 (+ ?v_67 ?v_60))) (?v_85 (* (- 1) x8))) (let ((?v_78 (+ ?v_85 ?v_41)) (?v_79 (* (- 1) x13)) (?v_108 (* (- 1) x33)) (?v_102 (* (- 1) x32)) (?v_122 (* (- 2) x6)) (?v_111 (* (- 2) x33)) (?v_112 (* (- 1) x27)) (?v_117 (* (- 2) x9)) (?v_126 (* (- 2) x3))) (and (<= (+ ?v_13 (+ ?v_5 (+ (* (- 2) x12) (+ ?v_33 (+ ?v_92 (+ ?v_49 (+ ?v_71 (+ ?v_0 (+ ?v_8 (+ ?v_69 (+ ?v_70 (+ ?v_1 (+ ?v_2 (+ ?v_11 (+ ?v_12 (+ ?v_3 (+ ?v_4 (+ ?v_110 (+ ?v_65 (+ ?v_84 (+ ?v_19 ?v_66))))))))))))))))))))) 1) (<= (+ (* (- 2) x0) (+ ?v_7 (+ ?v_20 (+ ?v_100 (+ ?v_21 (+ ?v_6 (+ ?v_0 (+ ?v_44 (+ ?v_9 (+ ?v_56 (+ ?v_95 (+ ?v_16 (+ ?v_64 (+ ?v_10 (+ ?v_1 (+ ?v_2 (+ ?v_53 (+ ?v_3 (+ ?v_4 (+ ?v_24 (+ (* 2 x31) ?v_26))))))))))))))))))))) 1) (<= (+ ?v_5 (+ ?v_6 (+ ?v_14 (+ ?v_48 (+ ?v_15 (+ ?v_45 (+ ?v_81 (+ ?v_7 (+ ?v_57 (+ ?v_82 (+ ?v_8 (+ ?v_9 (+ ?v_27 (+ ?v_10 (+ ?v_17 (+ ?v_18 (+ ?v_11 (+ ?v_12 (+ ?v_31 ?v_91))))))))))))))))))) 0) (<= (+ ?v_6 (+ ?v_13 (+ ?v_5 (+ ?v_43 (+ ?v_107 (+ ?v_14 (+ ?v_15 (+ ?v_38 (+ ?v_29 (+ ?v_0 (+ ?v_8 (+ ?v_22 (+ ?v_16 (+ ?v_23 (+ ?v_36 (+ ?v_25 (+ ?v_17 (+ ?v_30 (+ ?v_18 (+ ?v_39 (+ ?v_2 (+ ?v_75 (+ ?v_3 ?v_19))))))))))))))))))))))) 0) (<= (+ ?v_47 (+ ?v_20 (+ ?v_62 (+ ?v_14 (+ ?v_93 (+ ?v_21 (+ ?v_0 (+ ?v_9 (+ ?v_22 (+ ?v_98 (+ ?v_23 (+ ?v_28 (+ ?v_24 (+ ?v_25 (+ ?v_52 (+ ?v_2 (+ ?v_46 (+ ?v_11 (+ ?v_59 (+ ?v_3 (+ ?v_4 (+ ?v_26 ?v_42)))))))))))))))))))))) (- 1)) (<= (+ ?v_5 (+ ?v_32 (+ ?v_14 (+ ?v_80 (+ ?v_34 (+ ?v_16 (+ ?v_27 (+ ?v_35 (+ ?v_28 (+ ?v_50 (+ ?v_29 (+ ?v_10 (+ ?v_37 (+ ?v_30 (+ ?v_11 (+ ?v_74 (+ ?v_31 (+ (* 2 x26) (+ ?v_21 (+ ?v_40 (+ ?v_41 (* 2 x7)))))))))))))))))))))) 0) (<= (+ ?v_55 (+ ?v_32 (+ ?v_14 (+ ?v_33 (+ ?v_34 (+ ?v_113 (+ ?v_35 (+ ?v_36 (+ ?v_37 (+ ?v_38 (+ ?v_29 (+ ?v_21 (+ ?v_61 (+ ?v_25 (+ ?v_17 (+ ?v_39 (+ ?v_40 (+ ?v_31 (+ (* 3 x32) (+ ?v_41 ?v_42)))))))))))))))))))) 0) (<= (+ (* (- 3) x19) (+ ?v_0 (+ ?v_43 (+ ?v_44 (+ (* (- 2) x15) (+ ?v_22 (+ ?v_45 (+ ?v_88 (+ ?v_35 (+ ?v_10 (+ ?v_38 (+ ?v_51 (+ ?v_28 (+ ?v_37 (+ ?v_25 (+ ?v_46 (+ ?v_11 (+ ?v_12 (+ ?v_3 ?v_120))))))))))))))))))) 1) (<= (+ ?v_47 (+ ?v_20 (+ ?v_68 (+ ?v_86 (+ ?v_48 (+ ?v_49 (+ ?v_58 (+ ?v_50 (+ ?v_0 (+ ?v_9 (+ ?v_27 (+ ?v_36 (+ ?v_51 (+ ?v_25 (+ ?v_1 (+ ?v_52 (+ ?v_2 (+ ?v_12 (+ ?v_53 (+ ?v_63 (+ ?v_77 (+ ?v_35 (+ ?v_19 (+ ?v_87 ?v_54)))))))))))))))))))))))) (- 1)) (<= (+ ?v_55 (+ ?v_6 (+ (* 2 x10) (+ ?v_14 (+ ?v_0 (+ ?v_9 (+ ?v_56 (+ ?v_16 (+ ?v_101 (+ ?v_35 (+ ?v_28 (+ ?v_10 (+ ?v_37 (+ ?v_57 (+ ?v_58 (+ ?v_52 (+ ?v_18 (+ ?v_12 (+ ?v_59 (+ ?v_21 (+ ?v_40 (+ ?v_3 ?v_114)))))))))))))))))))))) 0) (<= (+ ?v_15 (+ ?v_61 (+ ?v_62 (+ ?v_0 (+ ?v_9 (+ ?v_56 (+ ?v_76 (+ ?v_36 (+ ?v_25 (+ ?v_52 (+ ?v_83 (+ ?v_11 (+ ?v_12 (+ ?v_73 (+ ?v_53 (+ ?v_63 (+ ?v_64 (+ ?v_4 (+ ?v_72 (+ ?v_65 (+ ?v_89 ?v_118))))))))))))))))))))) 0) (<= (+ ?v_13 (+ ?v_5 (+ ?v_68 (+ ?v_6 (+ ?v_9 (+ ?v_103 (+ ?v_22 (+ ?v_69 (+ ?v_45 (+ ?v_70 (+ ?v_71 (+ ?v_72 (+ ?v_37 (+ ?v_25 (+ ?v_1 (+ ?v_73 (+ ?v_65 (+ ?v_74 (+ ?v_40 (+ ?v_75 (+ ?v_99 ?v_78))))))))))))))))))))) (- 1)) (<= (+ ?v_13 (+ ?v_94 (+ ?v_79 (+ ?v_15 (+ ?v_50 (+ ?v_8 (+ ?v_9 (+ ?v_56 (+ ?v_27 (+ ?v_76 (+ ?v_37 (+ ?v_2 (+ ?v_53 (+ ?v_77 (+ ?v_4 (+ ?v_75 (+ (* 3 x25) (+ ?v_40 ?v_78)))))))))))))))))) 0) (<= (+ ?v_109 (+ ?v_79 (+ ?v_80 (+ ?v_69 (+ ?v_27 (+ ?v_36 (+ ?v_96 (+ ?v_70 (+ ?v_81 (+ ?v_28 (+ ?v_24 (+ ?v_57 (+ ?v_82 (+ ?v_17 (+ ?v_83 (+ ?v_18 (+ ?v_84 (+ ?v_11 (+ ?v_12 (+ ?v_19 (+ ?v_85 ?v_60))))))))))))))))))))) 0) (<= (+ ?v_20 (+ ?v_86 (+ ?v_33 (+ ?v_15 (+ ?v_7 (+ ?v_108 (+ ?v_29 (+ ?v_55 (+ ?v_0 (+ ?v_27 (+ ?v_18 (+ ?v_3 (+ ?v_87 (+ ?v_88 (+ ?v_63 (+ ?v_22 (+ ?v_70 (+ ?v_10 (+ ?v_97 ?v_74))))))))))))))))))) 1) (<= (+ ?v_55 (+ ?v_5 (+ ?v_79 (+ ?v_49 (+ ?v_57 (+ ?v_38 (+ ?v_90 (+ ?v_8 (+ ?v_106 (+ ?v_16 (+ ?v_27 (+ ?v_76 (+ ?v_23 (+ ?v_36 (+ ?v_51 (+ ?v_28 (+ ?v_17 (+ ?v_30 (+ ?v_40 (+ ?v_89 (+ ?v_46 (+ ?v_75 ?v_73)))))))))))))))))))))) (- 1)) (<= (+ ?v_15 (+ ?v_61 (+ ?v_62 (+ ?v_90 (+ ?v_0 (+ ?v_8 (+ ?v_9 (+ ?v_56 (+ ?v_16 (+ ?v_64 (+ ?v_23 (+ ?v_10 (+ ?v_37 (+ ?v_52 (+ ?v_30 (+ ?v_65 (+ ?v_40 (+ ?v_84 (+ ?v_75 (+ ?v_73 ?v_91)))))))))))))))))))) 0) (<= (+ ?v_5 (+ ?v_48 (+ ?v_92 (+ ?v_34 (+ ?v_93 (+ ?v_102 (+ ?v_29 (+ ?v_53 (+ ?v_13 (+ ?v_94 (+ ?v_79 (+ ?v_90 (+ ?v_95 (+ ?v_1 (+ ?v_2 (+ ?v_96 (+ ?v_4 (+ ?v_72 (+ ?v_97 (+ ?v_40 (+ ?v_75 ?v_41))))))))))))))))))))) 0) (<= (+ ?v_20 (+ ?v_93 (+ ?v_61 (+ ?v_6 (+ ?v_13 (+ ?v_57 (+ ?v_90 (+ ?v_76 (+ ?v_22 (+ ?v_98 (+ ?v_24 (+ ?v_1 (+ ?v_30 (+ ?v_74 (+ ?v_121 (+ ?v_40 (+ ?v_18 (+ ?v_11 (+ ?v_99 (+ ?v_73 ?v_124)))))))))))))))))))) 0) (<= (+ ?v_33 (+ ?v_100 (+ ?v_29 (+ ?v_43 (+ ?v_90 (+ ?v_95 (+ ?v_16 (+ ?v_36 (+ ?v_30 (+ ?v_101 (+ ?v_59 (+ ?v_40 (+ ?v_46 (+ ?v_11 (+ ?v_116 (+ ?v_122 (+ ?v_3 ?v_91))))))))))))))))) 0) (<= (+ ?v_47 (+ ?v_20 (+ ?v_33 (+ ?v_48 (+ ?v_71 (+ ?v_62 (+ (* 2 x11) (+ ?v_90 (+ ?v_95 (+ ?v_16 (+ ?v_76 (+ ?v_36 (+ ?v_28 (+ ?v_37 (+ ?v_25 (+ ?v_52 (+ ?v_97 (+ ?v_74 (+ ?v_104 (+ ?v_19 (+ ?v_66 (+ ?v_105 ?v_60)))))))))))))))))))))) (- 1)) (<= (+ (* (- 2) x16) (+ ?v_111 (+ ?v_6 (+ ?v_112 (+ ?v_102 (+ ?v_61 (+ ?v_43 (+ ?v_90 (+ ?v_9 (+ ?v_16 (+ ?v_76 (+ ?v_51 (+ ?v_28 (+ ?v_73 (+ ?v_63 (+ ?v_24 (+ ?v_97 (+ ?v_74 (+ ?v_89 (+ ?v_99 (+ ?v_31 (+ ?v_66 (+ ?v_26 ?v_87))))))))))))))))))))))) 0) (<= (+ ?v_47 (+ ?v_20 (+ ?v_94 (+ ?v_0 (+ (* (- 2) x22) (+ ?v_43 (+ ?v_8 (+ ?v_56 (+ ?v_16 (+ ?v_36 (+ ?v_64 (+ ?v_70 (+ ?v_37 (+ ?v_1 (+ ?v_17 (+ ?v_30 (+ ?v_88 ?v_74))))))))))))))))) 0) (<= (+ (* (- 2) x21) (+ (* (- 2) x5) (+ ?v_47 (+ ?v_5 (+ ?v_32 (+ ?v_6 (+ ?v_14 (+ ?v_103 (+ ?v_80 (+ ?v_15 (+ ?v_76 (+ ?v_49 (+ ?v_102 (+ ?v_61 (+ ?v_77 (+ ?v_23 (+ ?v_72 (+ ?v_30 (+ ?v_74 ?v_119))))))))))))))))))) 1) (<= (+ ?v_29 (+ ?v_55 (+ ?v_95 (+ ?v_94 (+ ?v_63 (+ (* 2 x16) (+ ?v_23 (+ ?v_28 (+ ?v_37 (+ ?v_25 (+ ?v_1 (+ ?v_18 (+ ?v_46 (+ ?v_11 (+ ?v_123 (+ ?v_73 (+ ?v_53 (+ ?v_4 (+ ?v_104 (+ ?v_41 ?v_105)))))))))))))))))))) (- 1)) (<= (+ ?v_20 (+ (* (- 2) x28) (+ ?v_13 (+ ?v_62 (+ ?v_80 (+ ?v_76 (+ ?v_22 (+ ?v_10 (+ ?v_106 (+ ?v_81 (+ ?v_28 (+ ?v_37 (+ ?v_74 (+ ?v_83 (+ ?v_29 (+ ?v_11 (+ ?v_73 (+ ?v_107 (+ ?v_87 (+ ?v_23 ?v_41)))))))))))))))))))) (- 1)) (<= (+ ?v_20 (+ ?v_33 (+ ?v_93 (+ ?v_102 (+ ?v_108 (+ ?v_29 (+ ?v_95 (+ ?v_22 (+ ?v_27 (+ ?v_109 (+ ?v_45 (+ ?v_81 (+ ?v_38 (+ ?v_61 (+ ?v_63 (+ ?v_23 (+ ?v_52 (+ ?v_30 (+ ?v_24 (+ ?v_110 (+ ?v_40 (+ ?v_89 (+ ?v_73 (+ ?v_53 ?v_41)))))))))))))))))))))))) 0) (<= (+ ?v_79 (+ ?v_33 (+ ?v_7 (+ ?v_38 (+ ?v_58 (+ ?v_62 (+ ?v_6 (+ ?v_16 (+ ?v_76 (+ ?v_36 (+ ?v_51 (+ ?v_37 (+ ?v_18 (+ ?v_46 (+ ?v_11 (+ ?v_12 (+ ?v_63 (+ ?v_22 (+ ?v_23 (+ ?v_39 (+ ?v_105 (+ ?v_26 ?v_60)))))))))))))))))))))) 0) (<= (+ ?v_5 (+ ?v_111 (+ ?v_6 (+ ?v_79 (+ ?v_80 (+ ?v_92 (+ ?v_7 (+ ?v_10 (+ ?v_38 (+ ?v_96 (+ ?v_112 (+ ?v_58 (+ ?v_21 (+ ?v_117 (+ ?v_23 (+ ?v_52 (+ ?v_4 (+ ?v_74 (+ ?v_89 (+ ?v_99 (+ ?v_105 (+ ?v_67 (* 2 x6))))))))))))))))))))))) (- 1)) (<= (+ ?v_5 (+ ?v_48 (+ ?v_93 (+ (* (- 2) x26) (+ ?v_81 (+ ?v_61 (+ ?v_62 (+ ?v_9 (+ ?v_27 (+ ?v_52 (+ ?v_24 (+ ?v_84 (+ ?v_31 (+ ?v_113 (+ ?v_115 (+ ?v_65 (+ ?v_85 (+ ?v_23 ?v_114)))))))))))))))))) (- 1)) (<= (+ ?v_13 (+ ?v_32 (+ ?v_86 (+ ?v_14 (+ ?v_33 (+ ?v_82 (+ ?v_61 (+ ?v_103 (+ ?v_8 (+ ?v_16 (+ ?v_85 (+ ?v_23 (+ ?v_51 (+ ?v_37 (+ ?v_1 (+ ?v_115 (+ ?v_65 (+ ?v_40 (+ ?v_116 ?v_114))))))))))))))))))) 1) (<= (+ ?v_15 (+ ?v_93 (+ ?v_81 (+ ?v_100 (+ ?v_82 (+ ?v_50 (+ ?v_29 (+ ?v_62 (+ ?v_103 (+ ?v_83 (+ ?v_8 (+ ?v_56 (+ ?v_17 (+ ?v_11 (+ ?v_53 (+ ?v_3 (+ ?v_77 (+ ?v_72 (+ ?v_24 (+ ?v_110 (+ ?v_85 (+ ?v_117 (+ ?v_90 (+ ?v_23 ?v_66)))))))))))))))))))))))) 1) (<= (+ ?v_20 (+ (* (- 2) x17) (+ (* (- 2) x34) (+ ?v_7 (+ ?v_58 (+ ?v_62 (+ ?v_56 (+ ?v_94 (+ ?v_8 (+ ?v_64 (+ ?v_23 (+ ?v_10 (+ ?v_37 (+ ?v_52 (+ ?v_59 (+ ?v_89 (+ ?v_84 (+ ?v_31 (+ ?v_115 (+ ?v_17 (+ ?v_40 (+ ?v_73 (+ ?v_66 ?v_3))))))))))))))))))))))) 0) (<= (+ ?v_20 (+ ?v_48 (+ ?v_15 (+ ?v_49 (+ ?v_38 (+ ?v_100 (+ ?v_50 (+ ?v_29 (+ ?v_62 (+ ?v_6 (+ ?v_0 (+ ?v_8 (+ ?v_9 (+ ?v_16 (+ ?v_23 (+ ?v_28 (+ ?v_10 (+ ?v_110 (+ ?v_17 (+ ?v_97 (+ ?v_2 (+ ?v_40 (+ ?v_11 ?v_118))))))))))))))))))))))) (- 1)) (<= (+ ?v_32 (+ ?v_71 (+ ?v_6 (+ ?v_0 (+ ?v_9 (+ ?v_28 (+ ?v_25 (+ ?v_17 (+ ?v_30 (+ ?v_46 (+ ?v_12 (+ ?v_3 (+ ?v_77 (+ ?v_70 (+ ?v_10 (+ ?v_4 (+ ?v_59 (+ ?v_39 (+ ?v_83 (+ ?v_19 ?v_119)))))))))))))))))))) (- 1)) (<= (+ ?v_92 (+ ?v_126 (+ ?v_55 (+ ?v_45 (+ ?v_36 (+ ?v_81 (+ ?v_46 (+ ?v_108 (+ ?v_61 (+ ?v_25 (+ ?v_43 (+ ?v_94 (+ ?v_103 (+ ?v_40 (+ ?v_63 (+ ?v_39 (+ ?v_19 (+ ?v_85 (+ ?v_41 ?v_60))))))))))))))))))) (- 1)) (<= (+ ?v_20 (+ ?v_32 (+ ?v_108 (+ ?v_6 (+ ?v_69 (+ ?v_27 (+ (* 3 x2) (+ ?v_36 (+ ?v_28 (+ ?v_1 (+ ?v_52 (+ ?v_125 (+ ?v_73 (+ ?v_63 (+ ?v_104 (+ (* 3 x5) (+ ?v_85 (+ ?v_60 ?v_88)))))))))))))))))) 1) (<= (+ ?v_47 (+ ?v_79 (+ ?v_44 (+ ?v_92 (+ (* (- 2) x7) (+ ?v_9 (+ ?v_95 (+ ?v_112 (+ ?v_16 (+ ?v_70 (+ ?v_36 (+ ?v_72 (+ ?v_25 (+ ?v_1 (+ ?v_30 (+ ?v_46 (+ ?v_11 (+ ?v_12 (+ ?v_73 ?v_120))))))))))))))))))) 0) (<= (+ ?v_94 (+ ?v_79 (+ ?v_15 (+ ?v_45 (+ ?v_38 (+ ?v_50 (+ ?v_8 (+ ?v_9 (+ ?v_27 (+ ?v_76 (+ ?v_10 (+ ?v_51 (+ ?v_28 (+ ?v_37 (+ ?v_46 (+ ?v_110 (+ ?v_75 (+ ?v_99 (+ ?v_105 (+ (* 2 x12) (+ ?v_121 (+ (* 2 x29) ?v_122)))))))))))))))))))))) (- 1)) (<= (+ ?v_20 (+ ?v_48 (+ ?v_93 (+ ?v_49 (+ ?v_57 (+ ?v_21 (+ ?v_61 (+ ?v_62 (+ ?v_6 (+ ?v_90 (+ ?v_8 (+ ?v_28 (+ ?v_30 (+ ?v_53 (+ ?v_96 (+ ?v_69 (+ ?v_77 (+ ?v_104 (+ ?v_89 (+ ?v_26 (+ ?v_60 (+ (* 2 x20) ?v_41)))))))))))))))))))))) 0) (<= (+ ?v_49 (+ ?v_29 (+ ?v_61 (+ ?v_94 (+ ?v_0 (+ ?v_9 (+ ?v_56 (+ ?v_45 (+ ?v_28 (+ ?v_30 (+ ?v_18 (+ ?v_46 (+ ?v_53 (+ ?v_85 (+ ?v_87 (+ ?v_88 (+ ?v_63 (+ ?v_4 (+ ?v_110 (+ ?v_59 (+ ?v_123 ?v_41))))))))))))))))))))) 0) (<= (+ ?v_13 (+ ?v_32 (+ ?v_34 (+ ?v_38 (+ ?v_21 (+ ?v_71 (+ ?v_6 (+ ?v_90 (+ ?v_9 (+ ?v_95 (+ ?v_52 (+ ?v_2 (+ ?v_46 (+ ?v_11 (+ ?v_103 (+ ?v_77 (+ ?v_64 (+ ?v_26 (+ ?v_124 (+ ?v_10 (+ ?v_72 (+ ?v_65 ?v_41)))))))))))))))))))))) 0) (<= (+ ?v_47 (+ ?v_62 (+ ?v_6 (+ ?v_80 (+ ?v_34 (+ ?v_50 (+ ?v_9 (+ ?v_22 (+ ?v_98 (+ ?v_81 (+ ?v_16 (+ ?v_27 (+ ?v_37 (+ ?v_25 (+ ?v_1 (+ ?v_52 (+ ?v_30 (+ ?v_2 (+ ?v_40 (+ ?v_46 (+ ?v_12 (+ ?v_124 (+ ?v_41 (+ ?v_3 (+ ?v_26 ?v_91))))))))))))))))))))))))) 0) (<= (+ ?v_109 (+ ?v_43 (+ ?v_80 (+ ?v_92 (+ ?v_9 (+ ?v_56 (+ ?v_95 (+ ?v_72 (+ ?v_57 (+ ?v_102 (+ ?v_29 (+ ?v_61 (+ ?v_16 (+ ?v_17 (+ ?v_30 (+ ?v_4 (+ ?v_125 (+ ?v_40 (+ ?v_124 (+ ?v_75 ?v_119)))))))))))))))))))) 0) (<= (+ ?v_20 (+ ?v_100 (+ ?v_126 (+ ?v_71 (+ ?v_55 (+ ?v_6 (+ ?v_9 (+ ?v_76 (+ ?v_18 (+ ?v_12 (+ ?v_103 (+ ?v_69 (+ ?v_64 (+ ?v_25 (+ ?v_73 (+ ?v_77 (+ ?v_124 (+ ?v_10 (+ ?v_97 (+ ?v_84 (+ (* 2 x24) (+ ?v_65 (+ ?v_66 ?v_26))))))))))))))))))))))) 0)))))))
(check-sat)
(exit)
